% From JaCoP's nonogramRepository/data112.nin
 rows = 20;
 row_rule_len = 7;
 row_rules = array2d(1..rows, 1..row_rule_len, 
[
 0,0,0,0,0,0,12,
 0,0,0,0,0,2,1,
 0,0,0,2,2,2,1,
 0,0,0,0,2,9,2,
 0,2,1,2,2,1,1,
 1,1,1,2,2,1,1,
 0,1,1,1,6,1,1,
 0,0,0,1,4,6,4,
 0,0,0,0,1,4,4,
 0,0,0,0,1,3,3,
 0,0,0,1,3,4,3,
 0,0,1,4,2,2,4,
 0,0,1,4,1,1,4,
 0,0,1,4,1,1,4,
 0,0,1,4,2,2,4,
 0,0,0,1,5,4,5,
 0,0,0,1,6,1,6,
 0,0,0,0,0,8,7,
 0,0,0,0,0,0,18,
 0,0,0,0,0,0,16
]);

 cols = 20;
 col_rule_len = 6;
 col_rules = array2d(1..cols, 1..col_rule_len, 
[
 0,0,0,0,0,12,
 0,0,0,0,1,1,
 0,0,0,0,5,7,
 0,0,0,2,1,9,
 0,0,0,2,1,10,
 0,0,0,2,1,11,
 0,0,1,3,4,5,
 0,0,1,1,2,4,
 0,0,1,7,4,3,
 0,1,7,2,2,2,
 1,1,2,1,1,2,
 1,1,2,1,1,2,
 0,1,7,2,3,2,
 0,0,1,7,4,3,
 0,0,1,1,2,4,
 0,0,1,4,4,5,
 0,0,0,1,1,11,
 0,0,0,1,1,10,
 0,0,0,2,1,9,
 0,0,0,0,5,7
]);

